language ESSENCE' 1.0

letting jobs = 102
letting horizon = 801
letting resourcesRenew = 2
letting resourcesNonrenew = 2
letting resourceLimits = [66, 70, 282, 264]
letting successors = [[2, 3, 4, 5, 6, 7, 8, 9, 10, 11, 12, 13, 14, 15, 16, 19, 20, 21, 22, 23, 28, 29, 30, 31, 34, 40], [99, 97, 71, 64, 62, 58, 57, 56, 55, 53, 52, 50, 49, 45, 44, 43, 35, 33, 17], [101, 100, 98, 97, 91, 72, 69, 62, 58, 57, 55, 50, 48, 46, 43, 38, 37, 35, 33], [100, 99, 98, 97, 96, 95, 94, 92, 90, 87, 71, 70, 69, 68, 67, 66, 53, 51, 49, 48, 45, 44, 27], [100, 98, 97, 91, 65, 62, 61, 59, 57, 56, 55, 51, 50, 42, 38, 35, 33], [97, 96, 68, 62, 60, 53, 49, 45, 42, 41, 32, 18], [99, 98, 97, 94, 72, 71, 70, 69, 68, 66, 65, 63, 62, 60, 59, 53, 50, 45, 39, 36], [98, 97, 65, 63, 62, 61, 55, 54, 51, 48, 47, 45, 38, 36, 24], [95, 94, 93, 92, 91, 90, 87, 86, 70, 69, 68, 67, 66, 63, 60, 59, 57, 56, 54, 53, 43, 41, 39], [100, 99, 98, 97, 95, 94, 93, 92, 90, 89, 88, 87, 86, 85, 69, 68, 67, 66, 63, 62, 60, 59, 55, 53, 45, 43], [98, 97, 93, 90, 70, 68, 67, 63, 62, 60, 58, 53, 46, 32, 25], [98, 97, 96, 91, 72, 69, 62, 59, 53, 35, 33], [100, 97, 96, 93, 70, 67, 65, 62, 61, 60, 59, 55, 53, 52, 45, 32], [101, 99, 90, 89, 88, 87, 85, 71, 69, 62, 59, 43, 26], [98, 96, 95, 91, 86, 84, 71, 68, 67, 62, 59, 58, 49, 43, 42], [96, 84, 83, 71, 66, 62, 60, 59, 49, 43, 35], [98, 94, 92, 91, 90, 89, 88, 87, 86, 85, 81, 76, 68, 67, 65, 63, 61, 60, 59], [101, 99, 98, 92, 90, 87, 85, 84, 82, 81, 79, 70, 69, 59, 58, 56, 55, 54], [99, 96, 93, 91, 90, 89, 86, 82, 76, 68, 67, 65, 63, 60, 59, 57], [98, 97, 90, 87, 76, 75, 72, 71, 68, 66, 60, 57, 47], [96, 95, 94, 93, 92, 91, 90, 89, 88, 87, 78, 76, 74, 67, 65, 61, 52], [97, 94, 90, 85, 84, 82, 78, 69, 67, 64, 62, 43], [92, 90, 88, 87, 86, 85, 81, 79, 68, 54, 53, 44], [99, 94, 93, 92, 91, 90, 89, 86, 85, 82, 81, 80, 76, 74, 69, 64, 59], [95, 94, 92, 91, 88, 87, 85, 84, 82, 81, 79, 77, 76, 65, 59, 54], [95, 93, 91, 83, 82, 81, 78, 76, 72, 66, 65, 63, 60, 53], [93, 91, 89, 88, 85, 83, 82, 80, 72, 63, 62, 60, 56], [100, 95, 92, 90, 89, 86, 85, 84, 83, 82, 78, 64, 43], [100, 97, 95, 91, 89, 86, 83, 81, 74, 73, 71, 66, 64, 49], [100, 93, 91, 88, 87, 85, 84, 83, 81, 79, 77, 76, 74, 72, 67, 65], [98, 97, 91, 88, 85, 84, 83, 80, 79, 77, 76, 46], [99, 91, 89, 88, 87, 86, 85, 84, 83, 82, 81, 80, 78, 76, 74, 73, 66], [95, 88, 87, 85, 83, 76, 70, 68, 67, 66, 63, 60], [93, 90, 84, 83, 82, 80, 76, 75, 62, 60, 59], [94, 93, 92, 90, 88, 87, 86, 85, 79, 76, 54], [95, 92, 88, 87, 85, 84, 83, 82, 81, 79, 78, 77, 76, 73], [96, 92, 90, 88, 87, 84, 81, 80, 76, 74, 71, 67], [90, 89, 85, 84, 83, 81, 78, 77, 76, 53], [101, 100, 96, 89, 88, 82, 81, 78, 76, 73, 61], [100, 99, 92, 91, 85, 78, 76, 75, 74, 65], [85, 84, 82, 81, 79, 78, 74, 61], [93, 90, 87, 83, 82, 81, 79, 78, 74], [79, 76, 74, 73, 65, 61], [82, 76, 75, 65, 59], [91, 84, 83, 82, 79, 76, 75], [94, 87, 86, 82, 75, 74, 73], [86, 84, 83, 80, 79, 77, 73], [83, 81, 77, 76, 60], [85, 82, 77, 76, 75], [96, 79, 78, 76, 75], [89, 85, 76, 75, 73], [82, 80, 73, 66], [80, 75, 74, 73], [89, 75, 74, 73], [78, 74, 73], [77, 76, 74], [88, 81, 77], [94, 83, 74], [78, 73], [79, 74], [77, 75], [81, 73], [84, 75], [77, 75], [80], [77], [73], [77], [83], [74], [78], [86], [102], [102], [102], [102], [102], [102], [102], [102], [102], [102], [102], [102], [102], [102], [102], [102], [102], [102], [102], [102], [102], [102], [102], [102], [102], [102], [102], [102], [102], []]
letting durations = [[0], [2, 6, 8], [3, 8, 8], [5, 8, 9], [7, 9, 10], [4, 7, 9], [2, 2, 4], [4, 6, 7], [5, 9, 10], [4, 9, 10], [4, 5, 8], [4, 6, 7], [1, 9, 10], [4, 5, 10], [2, 5, 9], [1, 2, 7], [7, 8, 10], [5, 5, 6], [4, 5, 10], [3, 8, 9], [4, 6, 10], [1, 6, 7], [8, 9, 10], [3, 5, 10], [4, 5, 10], [5, 8, 9], [2, 2, 8], [4, 6, 6], [2, 6, 7], [1, 2, 4], [1, 3, 3], [3, 7, 9], [1, 2, 3], [4, 6, 9], [3, 7, 8], [1, 2, 5], [1, 3, 4], [6, 7, 7], [1, 6, 9], [7, 8, 8], [2, 6, 8], [2, 3, 6], [3, 6, 8], [2, 4, 8], [1, 4, 6], [1, 8, 8], [1, 3, 5], [8, 9, 9], [3, 6, 8], [4, 5, 7], [2, 6, 7], [2, 3, 9], [2, 9, 10], [1, 5, 6], [2, 4, 4], [5, 9, 10], [4, 9, 10], [4, 5, 10], [1, 4, 10], [1, 3, 9], [1, 2, 10], [4, 7, 8], [3, 7, 8], [2, 7, 10], [2, 9, 9], [4, 6, 10], [4, 8, 9], [6, 7, 10], [3, 6, 7], [1, 3, 5], [6, 7, 10], [8, 8, 10], [1, 2, 3], [2, 4, 10], [1, 7, 9], [1, 4, 10], [1, 6, 8], [1, 7, 8], [3, 6, 7], [5, 6, 9], [1, 1, 3], [4, 7, 10], [2, 5, 6], [1, 2, 9], [1, 3, 6], [3, 6, 8], [2, 8, 9], [3, 3, 9], [1, 8, 8], [7, 7, 10], [2, 7, 8], [5, 5, 7], [1, 4, 5], [3, 5, 6], [5, 7, 9], [2, 3, 10], [1, 8, 10], [1, 8, 10], [4, 7, 9], [5, 7, 8], [3, 5, 6], [0]]
letting resourceUsage = [[[0, 0, 0, 0]], [[4, 3, 0, 6], [3, 3, 0, 3], [1, 2, 3, 0]], [[2, 2, 0, 9], [2, 2, 9, 0], [2, 2, 0, 4]], [[4, 3, 6, 0], [4, 2, 4, 0], [4, 2, 0, 8]], [[1, 4, 0, 4], [1, 3, 9, 0], [1, 3, 8, 0]], [[4, 4, 0, 4], [4, 4, 0, 3], [4, 4, 0, 2]], [[1, 2, 5, 0], [1, 2, 0, 3], [1, 2, 0, 2]], [[1, 4, 8, 0], [1, 3, 6, 0], [1, 3, 0, 2]], [[3, 1, 10, 0], [3, 1, 0, 8], [3, 1, 6, 0]], [[5, 5, 8, 0], [4, 4, 0, 6], [3, 2, 8, 0]], [[2, 3, 0, 7], [1, 3, 6, 0], [1, 3, 3, 0]], [[1, 3, 3, 0], [1, 2, 3, 0], [1, 2, 0, 7]], [[2, 2, 8, 0], [2, 2, 0, 6], [1, 2, 0, 4]], [[5, 4, 0, 5], [3, 4, 9, 0], [3, 3, 0, 2]], [[1, 3, 6, 0], [1, 2, 6, 0], [1, 1, 5, 0]], [[5, 4, 9, 0], [4, 4, 0, 5], [4, 4, 8, 0]], [[5, 2, 0, 9], [3, 2, 4, 0], [3, 2, 0, 8]], [[5, 5, 0, 9], [5, 5, 3, 0], [5, 5, 0, 5]], [[3, 4, 8, 0], [3, 3, 0, 4], [3, 3, 7, 0]], [[4, 2, 9, 0], [2, 2, 0, 7], [2, 2, 0, 6]], [[1, 3, 4, 0], [1, 2, 4, 0], [1, 2, 3, 0]], [[4, 5, 0, 5], [3, 4, 8, 0], [2, 4, 8, 0]], [[3, 4, 8, 0], [2, 4, 7, 0], [2, 2, 7, 0]], [[5, 3, 6, 0], [5, 2, 6, 0], [5, 2, 5, 0]], [[1, 4, 0, 4], [1, 2, 7, 0], [1, 1, 0, 3]], [[3, 2, 0, 8], [2, 2, 6, 0], [2, 2, 0, 3]], [[3, 1, 0, 3], [3, 1, 1, 0], [2, 1, 0, 1]], [[3, 3, 5, 0], [3, 3, 4, 0], [3, 3, 0, 3]], [[4, 5, 9, 0], [4, 4, 6, 0], [3, 3, 4, 0]], [[3, 5, 0, 5], [3, 3, 0, 5], [3, 2, 0, 5]], [[4, 5, 8, 0], [4, 4, 8, 0], [4, 4, 0, 1]], [[4, 5, 0, 5], [4, 5, 6, 0], [3, 5, 3, 0]], [[4, 3, 6, 0], [3, 2, 4, 0], [2, 2, 0, 7]], [[1, 5, 0, 7], [1, 5, 0, 5], [1, 5, 7, 0]], [[4, 1, 9, 0], [4, 1, 8, 0], [4, 1, 7, 0]], [[4, 3, 7, 0], [3, 2, 0, 8], [3, 1, 0, 8]], [[4, 2, 0, 6], [3, 2, 0, 3], [2, 1, 0, 2]], [[5, 4, 0, 4], [4, 4, 5, 0], [4, 4, 0, 3]], [[3, 5, 0, 7], [3, 4, 0, 6], [3, 2, 2, 0]], [[3, 4, 4, 0], [3, 3, 4, 0], [1, 3, 0, 7]], [[1, 5, 0, 7], [1, 3, 4, 0], [1, 3, 0, 7]], [[3, 2, 0, 6], [3, 2, 0, 5], [2, 1, 0, 4]], [[2, 4, 0, 9], [2, 4, 4, 0], [2, 2, 0, 4]], [[4, 4, 7, 0], [4, 3, 0, 4], [3, 3, 6, 0]], [[5, 2, 0, 4], [4, 1, 1, 0], [4, 1, 0, 2]], [[3, 3, 0, 8], [1, 2, 0, 8], [1, 2, 5, 0]], [[4, 5, 0, 7], [3, 3, 2, 0], [1, 3, 0, 5]], [[3, 4, 4, 0], [2, 3, 4, 0], [2, 3, 0, 3]], [[2, 4, 2, 0], [1, 2, 2, 0], [1, 2, 0, 2]], [[1, 5, 0, 10], [1, 4, 9, 0], [1, 3, 9, 0]], [[4, 3, 6, 0], [3, 3, 3, 0], [2, 3, 0, 7]], [[3, 4, 3, 0], [3, 4, 0, 3], [3, 3, 3, 0]], [[4, 2, 0, 7], [4, 2, 6, 0], [4, 2, 5, 0]], [[3, 4, 7, 0], [2, 3, 0, 6], [2, 3, 0, 2]], [[5, 2, 0, 3], [3, 2, 0, 2], [3, 2, 5, 0]], [[2, 1, 8, 0], [2, 1, 7, 0], [2, 1, 0, 4]], [[5, 3, 1, 0], [5, 2, 0, 4], [5, 2, 0, 3]], [[2, 2, 5, 0], [1, 2, 4, 0], [1, 2, 1, 0]], [[2, 2, 0, 9], [1, 1, 0, 9], [1, 1, 2, 0]], [[4, 4, 9, 0], [2, 3, 0, 5], [2, 2, 0, 2]], [[2, 3, 0, 6], [1, 3, 5, 0], [1, 1, 0, 1]], [[2, 2, 0, 7], [1, 2, 0, 7], [1, 2, 3, 0]], [[4, 5, 3, 0], [3, 3, 2, 0], [3, 3, 0, 5]], [[3, 3, 7, 0], [2, 3, 0, 5], [2, 3, 4, 0]], [[4, 1, 0, 7], [3, 1, 5, 0], [2, 1, 0, 5]], [[2, 3, 7, 0], [2, 2, 7, 0], [1, 2, 7, 0]], [[4, 4, 0, 7], [3, 3, 8, 0], [3, 2, 0, 1]], [[3, 2, 0, 5], [2, 1, 0, 5], [1, 1, 0, 3]], [[1, 4, 0, 6], [1, 4, 5, 0], [1, 4, 0, 5]], [[3, 4, 0, 7], [2, 4, 7, 0], [1, 4, 0, 6]], [[1, 4, 0, 6], [1, 3, 0, 6], [1, 2, 2, 0]], [[4, 2, 0, 6], [3, 2, 6, 0], [1, 2, 0, 3]], [[3, 2, 8, 0], [2, 2, 8, 0], [2, 1, 7, 0]], [[2, 4, 0, 8], [2, 4, 7, 0], [1, 4, 0, 8]], [[1, 3, 4, 0], [1, 3, 2, 0], [1, 2, 0, 5]], [[4, 5, 7, 0], [3, 5, 5, 0], [3, 5, 3, 0]], [[3, 4, 7, 0], [2, 3, 0, 5], [1, 1, 0, 4]], [[2, 3, 0, 2], [2, 3, 7, 0], [1, 3, 6, 0]], [[2, 5, 0, 6], [2, 4, 4, 0], [2, 3, 3, 0]], [[4, 5, 7, 0], [4, 4, 6, 0], [3, 4, 6, 0]], [[3, 3, 3, 0], [3, 1, 0, 3], [3, 1, 3, 0]], [[4, 4, 6, 0], [3, 4, 0, 4], [2, 2, 0, 4]], [[4, 2, 0, 5], [4, 2, 0, 4], [4, 2, 1, 0]], [[3, 1, 0, 4], [3, 1, 0, 3], [2, 1, 0, 2]], [[3, 4, 7, 0], [3, 4, 6, 0], [3, 4, 2, 0]], [[4, 4, 0, 8], [4, 4, 0, 7], [4, 3, 0, 2]], [[5, 5, 0, 5], [3, 3, 4, 0], [3, 2, 1, 0]], [[4, 1, 4, 0], [3, 1, 0, 2], [2, 1, 0, 2]], [[3, 3, 0, 9], [2, 2, 0, 6], [1, 1, 1, 0]], [[2, 2, 3, 0], [2, 2, 0, 3], [2, 2, 2, 0]], [[5, 3, 0, 3], [3, 3, 4, 0], [2, 3, 2, 0]], [[1, 1, 0, 3], [1, 1, 2, 0], [1, 1, 0, 2]], [[4, 5, 0, 6], [3, 5, 0, 5], [3, 5, 2, 0]], [[3, 3, 6, 0], [3, 2, 4, 0], [3, 1, 0, 5]], [[3, 5, 5, 0], [3, 2, 3, 0], [3, 2, 0, 7]], [[1, 3, 8, 0], [1, 2, 7, 0], [1, 2, 0, 4]], [[5, 3, 0, 9], [4, 2, 0, 7], [4, 2, 0, 5]], [[5, 5, 0, 9], [5, 4, 4, 0], [5, 3, 0, 9]], [[5, 2, 0, 9], [5, 1, 0, 4], [5, 1, 0, 2]], [[4, 3, 0, 9], [3, 1, 9, 0], [3, 1, 0, 6]], [[3, 3, 7, 0], [3, 3, 0, 4], [2, 2, 5, 0]], [[0, 0, 0, 0]]]
